# Solution for model RSD
# Objective value = 1.3770399999999999e+01
y[1,1] 0
y[1,2] 1
y[1,3] 0
y[1,4] 0
y[1,5] 0
y[1,6] 0
y[1,7] 0
y[1,8] 0
y[1,9] 0
y[1,10] 0
y[1,11] 0
y[1,12] 0
y[1,13] 0
y[1,14] 0
y[2,1] 0
y[2,2] 0
y[2,3] 0
y[2,4] 1
y[2,5] 0
y[2,6] 0
y[2,7] 0
y[2,8] 0
y[2,9] 0
y[2,10] 0
y[2,11] 0
y[2,12] 0
y[2,13] 0
y[2,14] 0
y[3,1] 0
y[3,2] 0
y[3,3] 0
y[3,4] 1
y[3,5] 0
y[3,6] 0
y[3,7] 1
y[3,8] 0
y[3,9] 0
y[3,10] 0
y[3,11] 0
y[3,12] 0
y[3,13] 0
y[3,14] 0
y[4,1] 0
y[4,2] 0
y[4,3] 0
y[4,4] 0
y[4,5] 0
y[4,6] 0
y[4,7] 0
y[4,8] 0
y[4,9] 0
y[4,10] 0
y[4,11] 0
y[4,12] 0
y[4,13] 0
y[4,14] 0
y[5,1] 0
y[5,2] 0
y[5,3] 0
y[5,4] 0
y[5,5] 0
y[5,6] 0
y[5,7] 0
y[5,8] 1
y[5,9] 0
y[5,10] 0
y[5,11] 0
y[5,12] 0
y[5,13] 0
y[5,14] 0
y[6,1] 0
y[6,2] 0
y[6,3] 0
y[6,4] 0
y[6,5] 0
y[6,6] 0
y[6,7] 0
y[6,8] 0
y[6,9] 0
y[6,10] 0
y[6,11] 0
y[6,12] 0
y[6,13] 0
y[6,14] 0
y[7,1] 0
y[7,2] 0
y[7,3] 0
y[7,4] 0
y[7,5] 0
y[7,6] 0
y[7,7] 0
y[7,8] 0
y[7,9] 1
y[7,10] 0
y[7,11] 0
y[7,12] 0
y[7,13] 0
y[7,14] 0
y[8,1] 0
y[8,2] 0
y[8,3] 0
y[8,4] 0
y[8,5] 0
y[8,6] 1
y[8,7] 0
y[8,8] 0
y[8,9] 0
y[8,10] 0
y[8,11] 0
y[8,12] 0
y[8,13] 0
y[8,14] 0
y[9,1] 0
y[9,2] 0
y[9,3] 0
y[9,4] 0
y[9,5] 0
y[9,6] 0
y[9,7] 0
y[9,8] 0
y[9,9] 0
y[9,10] 0
y[9,11] 0
y[9,12] 0
y[9,13] 0
y[9,14] 1
y[10,1] 0
y[10,2] 0
y[10,3] 0
y[10,4] 0
y[10,5] 0
y[10,6] 0
y[10,7] 0
y[10,8] 0
y[10,9] 0
y[10,10] 0
y[10,11] 0
y[10,12] 0
y[10,13] 0
y[10,14] 0
y[11,1] 0
y[11,2] 0
y[11,3] 0
y[11,4] 0
y[11,5] 0
y[11,6] 0
y[11,7] 0
y[11,8] 0
y[11,9] 0
y[11,10] 1
y[11,11] 0
y[11,12] 0
y[11,13] 1
y[11,14] 0
y[12,1] 0
y[12,2] 0
y[12,3] 0
y[12,4] 0
y[12,5] 0
y[12,6] 1
y[12,7] 0
y[12,8] 0
y[12,9] 0
y[12,10] 0
y[12,11] 0
y[12,12] 0
y[12,13] 0
y[12,14] 0
y[13,1] 0
y[13,2] 0
y[13,3] 0
y[13,4] 0
y[13,5] 0
y[13,6] 0
y[13,7] 0
y[13,8] 0
y[13,9] 0
y[13,10] 0
y[13,11] 0
y[13,12] 1
y[13,13] 0
y[13,14] 0
y[14,1] 0
y[14,2] 0
y[14,3] 0
y[14,4] 1
y[14,5] 0
y[14,6] 0
y[14,7] 0
y[14,8] 0
y[14,9] 0
y[14,10] 0
y[14,11] 0
y[14,12] 0
y[14,13] 0
y[14,14] 0
P[1,1] 0
P[1,2] 1.4532288399307219e-01
P[1,3] 0
P[1,4] 0
P[1,5] 0
P[1,6] 0
P[1,7] 0
P[1,8] 0
P[1,9] 0
P[1,10] 3.0246086410904161e-01
P[1,11] 0
P[1,12] 0
P[1,13] 0
P[1,14] 0
P[2,1] 9.2122650638561843e-01
P[2,2] 0
P[2,3] 0
P[2,4] 0.62795406007381
P[2,5] 0
P[2,6] 0
P[2,7] 0
P[2,8] 0
P[2,9] 0
P[2,10] 0
P[2,11] 0
P[2,12] 0
P[2,13] 0
P[2,14] 0
P[3,1] 0
P[3,2] 0
P[3,3] 0
P[3,4] 1.5527940475837790e-01
P[3,5] 0
P[3,6] 0
P[3,7] 5.4890107939325072e-01
P[3,8] 0
P[3,9] 0
P[3,10] 0
P[3,11] 0
P[3,12] 0
P[3,13] 0
P[3,14] 0
P[4,1] 0
P[4,2] 4.7117388360791973e-01
P[4,3] 9.3344999642658311e-01
P[4,4] 0
P[4,5] 0
P[4,6] 0
P[4,7] 0
P[4,8] 0
P[4,9] 0
P[4,10] 0
P[4,11] 0
P[4,12] 0
P[4,13] 0
P[4,14] 7.5551120380575865e-01
P[5,1] 0
P[5,2] 0
P[5,3] 0
P[5,4] 0
P[5,5] 0
P[5,6] 0
P[5,7] 0
P[5,8] 9.2721812476661625e-01
P[5,9] 0
P[5,10] 0
P[5,11] 0
P[5,12] 0
P[5,13] 0
P[5,14] 0
P[6,1] 0
P[6,2] 0
P[6,3] 0
P[6,4] 0
P[6,5] 0
P[6,6] 0
P[6,7] 0
P[6,8] 8.1488824037882557e-01
P[6,9] 0
P[6,10] 0
P[6,11] 0
P[6,12] 8.5829747384200306e-01
P[6,13] 0
P[6,14] 0
P[7,1] 0
P[7,2] 0
P[7,3] 5.8881714946783636e-01
P[7,4] 0
P[7,5] 0
P[7,6] 0
P[7,7] 0
P[7,8] 0
P[7,9] 8.7094691295638582e-01
P[7,10] 0
P[7,11] 0
P[7,12] 0
P[7,13] 0
P[7,14] 0
P[8,1] 0
P[8,2] 0
P[8,3] 0
P[8,4] 0
P[8,5] 1.0729453256861424e-01
P[8,6] 4.2602667492963392e-01
P[8,7] 0
P[8,8] 0
P[8,9] 4.8168258523795332e-01
P[8,10] 0
P[8,11] 0
P[8,12] 0
P[8,13] 0
P[8,14] 0
P[9,1] 0
P[9,2] 0
P[9,3] 0
P[9,4] 0
P[9,5] 0
P[9,6] 0
P[9,7] 0.318766921755389
P[9,8] 6.3987007660893658e-01
P[9,9] 0
P[9,10] 0
P[9,11] 0
P[9,12] 0
P[9,13] 0
P[9,14] 7.1876644408241541e-01
P[10,1] 7.6682438627236227e-01
P[10,2] 0
P[10,3] 0
P[10,4] 0
P[10,5] 0
P[10,6] 0
P[10,7] 0
P[10,8] 0
P[10,9] 0
P[10,10] 0
P[10,11] 0.838141823846118
P[10,12] 0
P[10,13] 0
P[10,14] 0
P[11,1] 0
P[11,2] 0
P[11,3] 0
P[11,4] 0
P[11,5] 0
P[11,6] 0
P[11,7] 0
P[11,8] 0
P[11,9] 0
P[11,10] 3.1450534600943864e-01
P[11,11] 0
P[11,12] 0
P[11,13] 4.0374016966534215e-01
P[11,14] 0
P[12,1] 0
P[12,2] 0
P[12,3] 0
P[12,4] 0
P[12,5] 0
P[12,6] 2.5195903929119484e-01
P[12,7] 0
P[12,8] 0
P[12,9] 0
P[12,10] 0
P[12,11] 0
P[12,12] 0
P[12,13] 4.3855081534049822e-01
P[12,14] 0
P[13,1] 0
P[13,2] 0
P[13,3] 0
P[13,4] 0
P[13,5] 0
P[13,6] 0
P[13,7] 0
P[13,8] 0
P[13,9] 0
P[13,10] 0
P[13,11] 7.3042302837798145e-01
P[13,12] 7.8451491354870939e-01
P[13,13] 0
P[13,14] 7.5061027170270433e-01
P[14,1] 0
P[14,2] 0
P[14,3] 0
P[14,4] 3.8490161900807357e-01
P[14,5] 0
P[14,6] 0
P[14,7] 0
P[14,8] 0
P[14,9] 4.4614941805432723e-01
P[14,10] 0
P[14,11] 0
P[14,12] 0
P[14,13] 4.5395130989729887e-01
P[14,14] 0
Q[1,1] 0
Q[1,2] 1.3866351406157376e-01
Q[1,3] 0
Q[1,4] 0
Q[1,5] 0
Q[1,6] 0
Q[1,7] 0
Q[1,8] 0
Q[1,9] 0
Q[1,10] 2.8021311200071713e-01
Q[1,11] 0
Q[1,12] 0
Q[1,13] 0
Q[1,14] 0
Q[2,1] 9.2131985304134656e-01
Q[2,2] 0
Q[2,3] 0
Q[2,4] 5.5511054892012668e-01
Q[2,5] 0
Q[2,6] 0
Q[2,7] 0
Q[2,8] 0
Q[2,9] 0
Q[2,10] 0
Q[2,11] 0
Q[2,12] 0
Q[2,13] 0
Q[2,14] 0
Q[3,1] 0
Q[3,2] 0
Q[3,3] 0
Q[3,4] 9.8101895512433590e-02
Q[3,5] 0
Q[3,6] 0
Q[3,7] 5.7922662117586377e-01
Q[3,8] 0
Q[3,9] 0
Q[3,10] 0
Q[3,11] 0
Q[3,12] 0
Q[3,13] 0
Q[3,14] 0
Q[4,1] 0
Q[4,2] 4.2652666446954923e-01
Q[4,3] 9.3837540750229620e-01
Q[4,4] 0
Q[4,5] 0
Q[4,6] 0
Q[4,7] 0
Q[4,8] 0
Q[4,9] 0
Q[4,10] 0
Q[4,11] 0
Q[4,12] 0
Q[4,13] 0
Q[4,14] 7.3833698673184012e-01
Q[5,1] 0
Q[5,2] 0
Q[5,3] 0
Q[5,4] 0
Q[5,5] 0
Q[5,6] 0
Q[5,7] 0
Q[5,8] 9.2642505709122869e-01
Q[5,9] 0
Q[5,10] 0
Q[5,11] 0
Q[5,12] 0
Q[5,13] 0
Q[5,14] 0
Q[6,1] 0
Q[6,2] 0
Q[6,3] 0
Q[6,4] 0
Q[6,5] 0
Q[6,6] 0
Q[6,7] 0
Q[6,8] 8.0360172033039945e-01
Q[6,9] 0
Q[6,10] 0
Q[6,11] 0
Q[6,12] 8.6454347099230378e-01
Q[6,13] 0
Q[6,14] 0
Q[7,1] 0
Q[7,2] 0
Q[7,3] 5.5970880379026577e-01
Q[7,4] 0
Q[7,5] 0
Q[7,6] 0
Q[7,7] 0
Q[7,8] 0
Q[7,9] 8.7378967056344281e-01
Q[7,10] 0
Q[7,11] 0
Q[7,12] 0
Q[7,13] 0
Q[7,14] 0
Q[8,1] 0
Q[8,2] 0
Q[8,3] 0
Q[8,4] 0
Q[8,5] 1.4053011781897598e-01
Q[8,6] 4.9835927926503509e-01
Q[8,7] 0
Q[8,8] 0
Q[8,9] 3.6095852824683522e-01
Q[8,10] 0
Q[8,11] 0
Q[8,12] 0
Q[8,13] 0
Q[8,14] 0
Q[9,1] 0
Q[9,2] 0
Q[9,3] 0
Q[9,4] 0
Q[9,5] 0
Q[9,6] 0
Q[9,7] 2.6137579190226234e-01
Q[9,8] 0.620793796927395
Q[9,9] 0
Q[9,10] 0
Q[9,11] 0
Q[9,12] 0
Q[9,13] 0
Q[9,14] 7.1119954102877936e-01
Q[10,1] 0.729023917576811
Q[10,2] 0
Q[10,3] 0
Q[10,4] 0
Q[10,5] 0
Q[10,6] 0
Q[10,7] 0
Q[10,8] 0
Q[10,9] 0
Q[10,10] 0
Q[10,11] 8.3939241624609207e-01
Q[10,12] 0
Q[10,13] 0
Q[10,14] 0
Q[11,1] 0
Q[11,2] 0
Q[11,3] 0
Q[11,4] 0
Q[11,5] 0
Q[11,6] 0
Q[11,7] 0
Q[11,8] 0
Q[11,9] 0
Q[11,10] 2.9780322182218594e-01
Q[11,11] 0
Q[11,12] 0
Q[11,13] 2.6524381841674377e-01
Q[11,14] 0
Q[12,1] 0
Q[12,2] 0
Q[12,3] 0
Q[12,4] 0
Q[12,5] 0
Q[12,6] 1.7058591205766835e-01
Q[12,7] 0
Q[12,8] 0
Q[12,9] 0
Q[12,10] 0
Q[12,11] 0
Q[12,12] 0
Q[12,13] 5.4415131508853787e-01
Q[12,14] 0
Q[13,1] 0
Q[13,2] 0
Q[13,3] 0
Q[13,4] 0
Q[13,5] 0
Q[13,6] 0
Q[13,7] 0
Q[13,8] 0
Q[13,9] 0
Q[13,10] 0
Q[13,11] 5.6872241884919250e-01
Q[13,12] 7.9049628891292190e-01
Q[13,13] 0
Q[13,14] 7.7295827879492474e-01
Q[14,1] 0
Q[14,2] 0
Q[14,3] 0
Q[14,4] 4.5722661427112515e-01
Q[14,5] 0
Q[14,6] 0
Q[14,7] 0
Q[14,8] 0
Q[14,9] 4.6959640485008425e-01
Q[14,10] 0
Q[14,11] 0
Q[14,12] 0
Q[14,13] 3.5578621480315603e-01
Q[14,14] 0
I[1,1] 0
I[1,2] 7.4556474309007310e+00
I[1,3] 0
I[1,4] 0
I[1,5] 0
I[1,6] 0
I[1,7] 0
I[1,8] 0
I[1,9] 0
I[1,10] 0
I[1,11] 0
I[1,12] 0
I[1,13] 0
I[1,14] 0
I[2,1] 0
I[2,2] 0
I[2,3] 0
I[2,4] 8.6107636959188727e-01
I[2,5] 0
I[2,6] 0
I[2,7] 0
I[2,8] 0
I[2,9] 0
I[2,10] 0
I[2,11] 0
I[2,12] 0
I[2,13] 0
I[2,14] 0
I[3,1] 0
I[3,2] 0
I[3,3] 0
I[3,4] 0.411056884201103
I[3,5] 0
I[3,6] 0
I[3,7] 6.6986557665668451e+00
I[3,8] 0
I[3,9] 0
I[3,10] 0
I[3,11] 0
I[3,12] 0
I[3,13] 0
I[3,14] 0
I[4,1] 0
I[4,2] 0
I[4,3] 0
I[4,4] 0
I[4,5] 0
I[4,6] 0
I[4,7] 0
I[4,8] 0
I[4,9] 0
I[4,10] 0
I[4,11] 0
I[4,12] 0
I[4,13] 0
I[4,14] 0
I[5,1] 0
I[5,2] 0
I[5,3] 0
I[5,4] 0
I[5,5] 0
I[5,6] 0
I[5,7] 0
I[5,8] 1.3419966831274124e+00
I[5,9] 0
I[5,10] 0
I[5,11] 0
I[5,12] 0
I[5,13] 0
I[5,14] 0
I[6,1] 0
I[6,2] 0
I[6,3] 0
I[6,4] 0
I[6,5] 0
I[6,6] 0
I[6,7] 0
I[6,8] 0
I[6,9] 0
I[6,10] 0
I[6,11] 0
I[6,12] 0
I[6,13] 0
I[6,14] 0
I[7,1] 0
I[7,2] 0
I[7,3] 0
I[7,4] 0
I[7,5] 0
I[7,6] 0
I[7,7] 0
I[7,8] 0
I[7,9] 1.9066961876607820e+00
I[7,10] 0
I[7,11] 0
I[7,12] 0
I[7,13] 0
I[7,14] 0
I[8,1] 0
I[8,2] 0
I[8,3] 0
I[8,4] 0
I[8,5] 0
I[8,6] 4.5993800461862415e+00
I[8,7] 0
I[8,8] 0
I[8,9] 0
I[8,10] 0
I[8,11] 0
I[8,12] 0
I[8,13] 0
I[8,14] 0
I[9,1] 0
I[9,2] 0
I[9,3] 0
I[9,4] 0
I[9,5] 0
I[9,6] 0
I[9,7] 0
I[9,8] 0
I[9,9] 0
I[9,10] 0
I[9,11] 0
I[9,12] 0
I[9,13] 0
I[9,14] 3.1469689223440573e+00
I[10,1] 0
I[10,2] 0
I[10,3] 0
I[10,4] 0
I[10,5] 0
I[10,6] 0
I[10,7] 0
I[10,8] 0
I[10,9] 0
I[10,10] 0
I[10,11] 0
I[10,12] 0
I[10,13] 0
I[10,14] 0
I[11,1] 0
I[11,2] 0
I[11,3] 0
I[11,4] 0
I[11,5] 0
I[11,6] 0
I[11,7] 0
I[11,8] 0
I[11,9] 0
I[11,10] 6.7638208104633470e+00
I[11,11] 0
I[11,12] 0
I[11,13] 2.1980947070478185e-01
I[11,14] 0
I[12,1] 0
I[12,2] 0
I[12,3] 0
I[12,4] 0
I[12,5] 0
I[12,6] 6.9431666636323435e+00
I[12,7] 0
I[12,8] 0
I[12,9] 0
I[12,10] 0
I[12,11] 0
I[12,12] 0
I[12,13] 0
I[12,14] 0
I[13,1] 0
I[13,2] 0
I[13,3] 0
I[13,4] 0
I[13,5] 0
I[13,6] 0
I[13,7] 0
I[13,8] 0
I[13,9] 0
I[13,10] 0
I[13,11] 0
I[13,12] 4.2857439951751986e-01
I[13,13] 0
I[13,14] 0
I[14,1] 0
I[14,2] 0
I[14,3] 0
I[14,4] 4.1994432235185855e+00
I[14,5] 0
I[14,6] 0
I[14,7] 0
I[14,8] 0
I[14,9] 0
I[14,10] 0
I[14,11] 0
I[14,12] 0
I[14,13] 0
I[14,14] 0
Isqr[1,1] 0
Isqr[1,2] 7.7771312461820575e-05
Isqr[1,3] 0
Isqr[1,4] 0
Isqr[1,5] 0
Isqr[1,6] 0
Isqr[1,7] 0
Isqr[1,8] 0
Isqr[1,9] 0
Isqr[1,10] 3.2764266265574913e-04
Isqr[1,11] 0
Isqr[1,12] 0
Isqr[1,13] 0
Isqr[1,14] 0
Isqr[2,1] 3.2731346514503655e-03
Isqr[2,2] 0
Isqr[2,3] 0
Isqr[2,4] 1.3537067574970806e-03
Isqr[2,5] 0
Isqr[2,6] 0
Isqr[2,7] 0
Isqr[2,8] 0
Isqr[2,9] 0
Isqr[2,10] 0
Isqr[2,11] 0
Isqr[2,12] 0
Isqr[2,13] 0
Isqr[2,14] 0
Isqr[3,1] 0
Isqr[3,2] 0
Isqr[3,3] 0
Isqr[3,4] 6.5010534650613457e-05
Isqr[3,5] 0
Isqr[3,6] 0
Isqr[3,7] 1.2281952423899558e-03
Isqr[3,8] 0
Isqr[3,9] 0
Isqr[3,10] 0
Isqr[3,11] 0
Isqr[3,12] 0
Isqr[3,13] 0
Isqr[3,14] 0
Isqr[4,1] 0
Isqr[4,2] 7.7861276491670412e-04
Isqr[4,3] 3.3779579758264539e-03
Isqr[4,4] 0
Isqr[4,5] 0
Isqr[4,6] 0
Isqr[4,7] 0
Isqr[4,8] 0
Isqr[4,9] 0
Isqr[4,10] 0
Isqr[4,11] 0
Isqr[4,12] 0
Isqr[4,13] 0
Isqr[4,14] 2.1529459858353897e-03
Isqr[5,1] 0
Isqr[5,2] 0
Isqr[5,3] 0
Isqr[5,4] 0
Isqr[5,5] 0
Isqr[5,6] 0
Isqr[5,7] 0
Isqr[5,8] 0.00331473678800355
Isqr[5,9] 0
Isqr[5,10] 0
Isqr[5,11] 0
Isqr[5,12] 0
Isqr[5,13] 0
Isqr[5,14] 0
Isqr[6,1] 0
Isqr[6,2] 0
Isqr[6,3] 0
Isqr[6,4] 0
Isqr[6,5] 0
Isqr[6,6] 0
Isqr[6,7] 0
Isqr[6,8] 2.5271896331545986e-03
Isqr[6,9] 0
Isqr[6,10] 0
Isqr[6,11] 0
Isqr[6,12] 2.8624319820513395e-03
Isqr[6,13] 0
Isqr[6,14] 0
Isqr[7,1] 0
Isqr[7,2] 0
Isqr[7,3] 1.2725681681152506e-03
Isqr[7,4] 0
Isqr[7,5] 0
Isqr[7,6] 0
Isqr[7,7] 0
Isqr[7,8] 0
Isqr[7,9] 2.9341262462665792e-03
Isqr[7,10] 0
Isqr[7,11] 0
Isqr[7,12] 0
Isqr[7,13] 0
Isqr[7,14] 0
Isqr[8,1] 0
Isqr[8,2] 0
Isqr[8,3] 0
Isqr[8,4] 0
Isqr[8,5] 6.02547611326177e-05
Isqr[8,6] 8.2850907881324429e-04
Isqr[8,7] 0
Isqr[8,8] 0
Isqr[8,9] 0.00069843699105727
Isqr[8,10] 0
Isqr[8,11] 0
Isqr[8,12] 0
Isqr[8,13] 0
Isqr[8,14] 0
Isqr[9,1] 0
Isqr[9,2] 0
Isqr[9,3] 0
Isqr[9,4] 0
Isqr[9,5] 0
Isqr[9,6] 0
Isqr[9,7] 3.2774520446738915e-04
Isqr[9,8] 1.5335386960510196e-03
Isqr[9,9] 0
Isqr[9,10] 0
Isqr[9,11] 0
Isqr[9,12] 0
Isqr[9,13] 0
Isqr[9,14] 1.9725425496847052e-03
Isqr[10,1] 2.1586358015617912e-03
Isqr[10,2] 0
Isqr[10,3] 0
Isqr[10,4] 0
Isqr[10,5] 0
Isqr[10,6] 0
Isqr[10,7] 0
Isqr[10,8] 0
Isqr[10,9] 0
Isqr[10,10] 0
Isqr[10,11] 2.7142179363820731e-03
Isqr[10,12] 0
Isqr[10,13] 0
Isqr[10,14] 0
Isqr[11,1] 0
Isqr[11,2] 0
Isqr[11,3] 0
Isqr[11,4] 0
Isqr[11,5] 0
Isqr[11,6] 0
Isqr[11,7] 0
Isqr[11,8] 0
Isqr[11,9] 0
Isqr[11,10] 3.6155985717727996e-04
Isqr[11,11] 0
Isqr[11,12] 0
Isqr[11,13] 4.4964950155808309e-04
Isqr[11,14] 0
Isqr[12,1] 0
Isqr[12,2] 0
Isqr[12,3] 0
Isqr[12,4] 0
Isqr[12,5] 0
Isqr[12,6] 1.7844334777083708e-04
Isqr[12,7] 0
Isqr[12,8] 0
Isqr[12,9] 0
Isqr[12,10] 0
Isqr[12,11] 0
Isqr[12,12] 0
Isqr[12,13] 9.4112437966848794e-04
Isqr[12,14] 0
Isqr[13,1] 0
Isqr[13,2] 0
Isqr[13,3] 0
Isqr[13,4] 0
Isqr[13,5] 0
Isqr[13,6] 0
Isqr[13,7] 0
Isqr[13,8] 0
Isqr[13,9] 0
Isqr[13,10] 0
Isqr[13,11] 1.6530795378792923e-03
Isqr[13,12] 2.3922835612237904e-03
Isqr[13,13] 0
Isqr[13,14] 2.2396504162273821e-03
Isqr[14,1] 0
Isqr[14,2] 0
Isqr[14,3] 0
Isqr[14,4] 6.8835486114573812e-04
Isqr[14,5] 0
Isqr[14,6] 0
Isqr[14,7] 0
Isqr[14,8] 0
Isqr[14,9] 8.0882100563667509e-04
Isqr[14,10] 0
Isqr[14,11] 0
Isqr[14,12] 0
Isqr[14,13] 6.4097606019474862e-04
Isqr[14,14] 0
V[1] 2.2772625515162989e+01
V[2] 2.2776471619913760e+01
V[3] 2.2769740399331496e+01
V[4] 2.2772187528956490e+01
V[5] 2.2764939979652752e+01
V[6] 22.7727719989816
V[7] 2.2774405765597972e+01
V[8] 2.2770421903510684e+01
V[9] 2.2763679786324214e+01
V[10] 2.2770625373807576e+01
V[11] 2.2774727569667757e+01
V[12] 2.2774698212820542e+01
V[13] 2.2764836101551989e+01
V[14] 2.2774281257543652e+01
Vsqr[1] 5.1861250099301674e+02
Vsqr[2] 5.1878140495282173e+02
Vsqr[3] 518.620217827095
Vsqr[4] 5.1892628827857607e+02
Vsqr[5] 5.1881096440709769e+02
Vsqr[6] 5.1883643761260555e+02
Vsqr[7] 5.1848098059616052e+02
Vsqr[8] 5.1829057544473926e+02
Vsqr[9] 5.1874281671019219e+02
Vsqr[10] 5.1886393877018986e+02
Vsqr[11] 5.1840396692945649e+02
Vsqr[12] 5.1847868391108761e+02
Vsqr[13] 5.1898291224848526e+02
Vsqr[14] 5.1833101823930417e+02
deltaV[1,1] -2.7600000000000016e+00
deltaV[1,2] 0
deltaV[1,3] -2.7600000000000016e+00
deltaV[1,4] -2.7600000000000016e+00
deltaV[1,5] -2.7600000000000016e+00
deltaV[1,6] -2.7600000000000016e+00
deltaV[1,7] -2.7600000000000016e+00
deltaV[1,8] -2.7600000000000016e+00
deltaV[1,9] -2.7600000000000016e+00
deltaV[1,10] -1.0573023692473902e-02
deltaV[1,11] -2.7600000000000016e+00
deltaV[1,12] -2.7600000000000016e+00
deltaV[1,13] -2.7600000000000016e+00
deltaV[1,14] -2.7600000000000016e+00
deltaV[2,1] 4.1528390215111663e-02
deltaV[2,2] -2.7600000000000016e+00
deltaV[2,3] -2.7600000000000016e+00
deltaV[2,4] 0
deltaV[2,5] -2.7600000000000016e+00
deltaV[2,6] -2.7600000000000016e+00
deltaV[2,7] -2.7600000000000016e+00
deltaV[2,8] -2.7600000000000016e+00
deltaV[2,9] -2.7600000000000016e+00
deltaV[2,10] -2.7600000000000016e+00
deltaV[2,11] -2.7600000000000016e+00
deltaV[2,12] -2.7600000000000016e+00
deltaV[2,13] -2.7600000000000016e+00
deltaV[2,14] -2.7600000000000016e+00
deltaV[3,1] -2.7600000000000016e+00
deltaV[3,2] -2.7600000000000016e+00
deltaV[3,3] -2.7600000000000016e+00
deltaV[3,4] 0
deltaV[3,5] -2.7600000000000016e+00
deltaV[3,6] -2.7600000000000016e+00
deltaV[3,7] 0
deltaV[3,8] -2.7600000000000016e+00
deltaV[3,9] -2.7600000000000016e+00
deltaV[3,10] -2.7600000000000016e+00
deltaV[3,11] -2.7600000000000016e+00
deltaV[3,12] -2.7600000000000016e+00
deltaV[3,13] -2.7600000000000016e+00
deltaV[3,14] -2.7600000000000016e+00
deltaV[4,1] -2.7600000000000016e+00
deltaV[4,2] -1.0594861721279847e-02
deltaV[4,3] 7.1979328469969781e-02
deltaV[4,4] -2.7600000000000016e+00
deltaV[4,5] -2.7600000000000016e+00
deltaV[4,6] -2.7600000000000016e+00
deltaV[4,7] -2.7600000000000016e+00
deltaV[4,8] -2.7600000000000016e+00
deltaV[4,9] -2.7600000000000016e+00
deltaV[4,10] -2.7600000000000016e+00
deltaV[4,11] -2.7600000000000016e+00
deltaV[4,12] -2.7600000000000016e+00
deltaV[4,13] -2.7600000000000016e+00
deltaV[4,14] -7.0245121046359077e-02
deltaV[5,1] -2.7600000000000016e+00
deltaV[5,2] -2.7600000000000016e+00
deltaV[5,3] -2.7600000000000016e+00
deltaV[5,4] -2.7600000000000016e+00
deltaV[5,5] -2.7600000000000016e+00
deltaV[5,6] -2.7600000000000016e+00
deltaV[5,7] -2.7600000000000016e+00
deltaV[5,8] 0
deltaV[5,9] -2.7600000000000016e+00
deltaV[5,10] -2.7600000000000016e+00
deltaV[5,11] -2.7600000000000016e+00
deltaV[5,12] -2.7600000000000016e+00
deltaV[5,13] -2.7600000000000016e+00
deltaV[5,14] -2.7600000000000016e+00
deltaV[6,1] -2.7600000000000016e+00
deltaV[6,2] -2.7600000000000016e+00
deltaV[6,3] -2.7600000000000016e+00
deltaV[6,4] -2.7600000000000016e+00
deltaV[6,5] -2.7600000000000016e+00
deltaV[6,6] -2.7600000000000016e+00
deltaV[6,7] -2.7600000000000016e+00
deltaV[6,8] -1.1743842629593897e-02
deltaV[6,9] -2.7600000000000016e+00
deltaV[6,10] -2.7600000000000016e+00
deltaV[6,11] -2.7600000000000016e+00
deltaV[6,12] 1.1731651967625729e-02
deltaV[6,13] -2.7600000000000016e+00
deltaV[6,14] -2.7600000000000016e+00
deltaV[7,1] -2.7600000000000016e+00
deltaV[7,2] -2.7600000000000016e+00
deltaV[7,3] -7.1979333048941774e-02
deltaV[7,4] -2.7600000000000016e+00
deltaV[7,5] -2.7600000000000016e+00
deltaV[7,6] -2.7600000000000016e+00
deltaV[7,7] -2.7600000000000016e+00
deltaV[7,8] -2.7600000000000016e+00
deltaV[7,9] 0
deltaV[7,10] -2.7600000000000016e+00
deltaV[7,11] -2.7600000000000016e+00
deltaV[7,12] -2.7600000000000016e+00
deltaV[7,13] -2.7600000000000016e+00
deltaV[7,14] -2.7600000000000016e+00
deltaV[8,1] -2.7600000000000016e+00
deltaV[8,2] -2.7600000000000016e+00
deltaV[8,3] -2.7600000000000016e+00
deltaV[8,4] -2.7600000000000016e+00
deltaV[8,5] -5.8358405880129507e-07
deltaV[8,6] 0
deltaV[8,7] -2.7600000000000016e+00
deltaV[8,8] -2.7600000000000016e+00
deltaV[8,9] -5.1022059418771235e-02
deltaV[8,10] -2.7600000000000016e+00
deltaV[8,11] -2.7600000000000016e+00
deltaV[8,12] -2.7600000000000016e+00
deltaV[8,13] -2.7600000000000016e+00
deltaV[8,14] -2.7600000000000016e+00
deltaV[9,1] -2.7600000000000016e+00
deltaV[9,2] -2.7600000000000016e+00
deltaV[9,3] -2.7600000000000016e+00
deltaV[9,4] -2.7600000000000016e+00
deltaV[9,5] -2.7600000000000016e+00
deltaV[9,6] -2.7600000000000016e+00
deltaV[9,7] -5.8372662914748012e-02
deltaV[9,8] 1.1749198731577672e-02
deltaV[9,9] -2.7600000000000016e+00
deltaV[9,10] -2.7600000000000016e+00
deltaV[9,11] -2.7600000000000016e+00
deltaV[9,12] -2.7600000000000016e+00
deltaV[9,13] -2.7600000000000016e+00
deltaV[9,14] 0
deltaV[10,1] -4.1528213410002839e-02
deltaV[10,2] -2.7600000000000016e+00
deltaV[10,3] -2.7600000000000016e+00
deltaV[10,4] -2.7600000000000016e+00
deltaV[10,5] -2.7600000000000016e+00
deltaV[10,6] -2.7600000000000016e+00
deltaV[10,7] -2.7600000000000016e+00
deltaV[10,8] -2.7600000000000016e+00
deltaV[10,9] -2.7600000000000016e+00
deltaV[10,10] -2.7600000000000016e+00
deltaV[10,11] 4.1520158397924896e-02
deltaV[10,12] -2.7600000000000016e+00
deltaV[10,13] -2.7600000000000016e+00
deltaV[10,14] -2.7600000000000016e+00
deltaV[11,1] -2.7600000000000016e+00
deltaV[11,2] -2.7600000000000016e+00
deltaV[11,3] -2.7600000000000016e+00
deltaV[11,4] -2.7600000000000016e+00
deltaV[11,5] -2.7600000000000016e+00
deltaV[11,6] -2.7600000000000016e+00
deltaV[11,7] -2.7600000000000016e+00
deltaV[11,8] -2.7600000000000016e+00
deltaV[11,9] -2.7600000000000016e+00
deltaV[11,10] 0
deltaV[11,11] -2.7600000000000016e+00
deltaV[11,12] -2.7600000000000016e+00
deltaV[11,13] 0
deltaV[11,14] -2.7600000000000016e+00
deltaV[12,1] -2.7600000000000016e+00
deltaV[12,2] -2.7600000000000016e+00
deltaV[12,3] -2.7600000000000016e+00
deltaV[12,4] -2.7600000000000016e+00
deltaV[12,5] -2.7600000000000016e+00
deltaV[12,6] 0
deltaV[12,7] -2.7600000000000016e+00
deltaV[12,8] -2.7600000000000016e+00
deltaV[12,9] -2.7600000000000016e+00
deltaV[12,10] -2.7600000000000016e+00
deltaV[12,11] -2.7600000000000016e+00
deltaV[12,12] -2.7600000000000016e+00
deltaV[12,13] 5.1039760788814011e-02
deltaV[12,14] -2.7600000000000016e+00
deltaV[13,1] -2.7600000000000016e+00
deltaV[13,2] -2.7600000000000016e+00
deltaV[13,3] -2.7600000000000016e+00
deltaV[13,4] -2.7600000000000016e+00
deltaV[13,5] -2.7600000000000016e+00
deltaV[13,6] -2.7600000000000016e+00
deltaV[13,7] -2.7600000000000016e+00
deltaV[13,8] -2.7600000000000016e+00
deltaV[13,9] -2.7600000000000016e+00
deltaV[13,10] -2.7600000000000016e+00
deltaV[13,11] -0.0415198399931559
deltaV[13,12] 0
deltaV[13,13] -2.7600000000000016e+00
deltaV[13,14] 4.7842254266648981e-02
deltaV[14,1] -2.7600000000000016e+00
deltaV[14,2] -2.7600000000000016e+00
deltaV[14,3] -2.7600000000000016e+00
deltaV[14,4] 0
deltaV[14,5] -2.7600000000000016e+00
deltaV[14,6] -2.7600000000000016e+00
deltaV[14,7] -2.7600000000000016e+00
deltaV[14,8] -2.7600000000000016e+00
deltaV[14,9] -5.5563256040396559e-02
deltaV[14,10] -2.7600000000000016e+00
deltaV[14,11] -2.7600000000000016e+00
deltaV[14,12] -2.7600000000000016e+00
deltaV[14,13] -4.5994430665876475e-02
deltaV[14,14] -2.7600000000000016e+00
